unsat
(forall ((A (_ BitVec 32))
         (B (_ BitVec 1))
         (C (_ BitVec 32))
         (D (_ BitVec 1))
         (E (_ BitVec 70))
         (F (_ BitVec 4))
         (G (_ BitVec 4))
         (H (_ BitVec 4))
         (I (_ BitVec 4))
         (J (_ BitVec 4))
         (K (_ BitVec 1))
         (L (_ BitVec 1))
         (M (_ BitVec 1))
         (N (_ BitVec 1))
         (O (_ BitVec 1))
         (P (_ BitVec 1))
         (Q (_ BitVec 4))
         (R (_ BitVec 1))
         (S (_ BitVec 1))
         (T (_ BitVec 1))
         (U (_ BitVec 1))
         (V (_ BitVec 4))
         (W (_ BitVec 1))
         (X (_ BitVec 1))
         (Y (_ BitVec 4))
         (Z (_ BitVec 1))
         (A1 (_ BitVec 1))
         (B1 (_ BitVec 1))
         (C1 (_ BitVec 1))
         (D1 (_ BitVec 32))
         (E1 (_ BitVec 1))
         (F1 (_ BitVec 1))
         (G1 (_ BitVec 1))
         (H1 (_ BitVec 1))
         (I1 (_ BitVec 32))
         (J1 (_ BitVec 1))
         (K1 (_ BitVec 1))
         (L1 (_ BitVec 4))
         (M1 (_ BitVec 4))
         (N1 (_ BitVec 1))
         (O1 (_ BitVec 1))
         (P1 (_ BitVec 4))
         (Q1 (_ BitVec 1))
         (R1 (_ BitVec 32))
         (S1 (_ BitVec 1))
         (T1 (_ BitVec 1))
         (U1 (_ BitVec 1))
         (V1 (_ BitVec 1))
         (W1 (_ BitVec 1))
         (X1 (_ BitVec 32))
         (Y1 (_ BitVec 1))
         (Z1 (_ BitVec 1))
         (A2 (_ BitVec 1))
         (B2 (_ BitVec 1))
         (C2 (_ BitVec 1))
         (D2 (_ BitVec 70))
         (E2 (_ BitVec 1))
         (F2 (_ BitVec 1))
         (G2 (_ BitVec 1))
         (H2 (_ BitVec 1))
         (I2 (_ BitVec 1))
         (J2 (_ BitVec 1))
         (K2 (_ BitVec 32))
         (L2 (_ BitVec 1))
         (M2 (_ BitVec 1))
         (N2 (_ BitVec 1))
         (O2 (_ BitVec 1))
         (P2 (_ BitVec 1))
         (Q2 (_ BitVec 1))
         (R2 (_ BitVec 1))
         (S2 (_ BitVec 1))
         (T2 (_ BitVec 1))
         (U2 (_ BitVec 1))
         (V2 (_ BitVec 32))
         (W2 (_ BitVec 1))
         (X2 (_ BitVec 1))
         (Y2 (_ BitVec 1))
         (Z2 (_ BitVec 4))
         (A3 (_ BitVec 32))
         (B3 (_ BitVec 1))
         (C3 (_ BitVec 32))
         (D3 (_ BitVec 1))
         (E3 (_ BitVec 1))
         (F3 (_ BitVec 1))
         (G3 (_ BitVec 1)))
  (! (let ((a!1 (or ((_ bit2bool 2) V)
                    (not (= B2 #b1))
                    (not (bvule #xe (bvadd #xa H)))))
           (a!2 (or (= G3 #b1)
                    (not (= ((_ extract 3 3) Q) #b0))
                    (not (= ((_ extract 2 2) Q) #b0))
                    (not (= ((_ extract 1 1) Q) #b0))
                    (= F1 #b0)
                    (not (= ((_ extract 0 0) Q) #b0))))
           (a!3 (or (not (= J1 #b0))
                    ((_ bit2bool 0) S1)
                    (not ((_ bit2bool 69) D2))
                    (not (bvule #xe (bvadd #x3 H)))
                    (bvule #x5 (bvadd #x3 I))))
           (a!4 (or ((_ bit2bool 0) S1)
                    (= J1 #b1)
                    (not (bvule #xe (bvadd #x1 H)))
                    (not ((_ bit2bool 69) D2))
                    (bvule #x5 (bvadd #x1 I))))
           (a!5 (or (not (= M X)) (not (bvule #xe (bvadd #x2 H)))))
           (a!6 (or (not (= B2 #b1)) (not (bvule #xe (bvadd #x7 H)))))
           (a!7 (or ((_ bit2bool 0) Y1)
                    ((_ bit2bool 0) S1)
                    (not (bvule #xe (bvadd #x3 H)))
                    (bvule #x5 (bvadd #x3 I))))
           (a!8 (or (not (= J1 #b1)) (not (bvule #xe (bvadd #x3 H)))))
           (a!9 (or ((_ bit2bool 0) Y1)
                    ((_ bit2bool 0) S1)
                    (not (bvule #xe (bvadd #x1 H)))
                    (bvule #x5 (bvadd #x1 I))))
           (a!10 (or ((_ bit2bool 0) Y1)
                     ((_ bit2bool 0) S1)
                     (not (bvule #xe (bvadd #x1 H)))
                     (= T2 #b1)))
           (a!11 (or (not (= T2 W1)) (not (bvule #x5 (bvadd #x4 I)))))
           (a!12 (or ((_ bit2bool 1) V)
                     ((_ bit2bool 2) V)
                     (not (= J1 #b1))
                     (not (bvule #xe (bvadd #x7 H)))))
           (a!13 (or (not (= X #b1)) (not (bvule #xe (bvadd #x6 H)))))
           (a!14 (or (not (bvule #xe (bvadd #x1 H))) (= V2 X1)))
           (a!15 (or (= J Y)
                     (not ((_ bit2bool 1) H))
                     (not ((_ bit2bool 69) D2))
                     (not (bvule #x5 (bvadd #x4 I)))
                     (bvule #x5 (bvadd #x3 I))))
           (a!16 (or (bvule #x5 I)
                     (= J Y)
                     ((_ bit2bool 0) S1)
                     (not (bvule #xe (bvadd #x1 H)))
                     (not ((_ bit2bool 69) D2))))
           (a!17 (or (not (= N2 #b0)) (not (bvule #xe (bvadd #x9 H)))))
           (a!18 (or ((_ bit2bool 0) I)
                     ((_ bit2bool 0) Y1)
                     ((_ bit2bool 0) S1)
                     (bvule #x5 (bvadd #x3 I))
                     (not (bvule #xe (bvadd #x5 H)))))
           (a!19 (or (not ((_ bit2bool 3) H))
                     (not ((_ bit2bool 1) H))
                     (not (bvule #x5 (bvadd #x4 I)))
                     (bvule #x5 (bvadd #x3 I))))
           (a!20 (or (not (bvule #x5 (bvadd #x3 I)))
                     (not (bvule #xe (bvadd #x3 H)))
                     (bvule #x5 (bvadd #x2 I))))
           (a!21 (or (not ((_ bit2bool 1) I)) (not (bvule #xe (bvadd #x2 H)))))
           (a!22 (or (not (= Y #x0))
                     ((_ bit2bool 0) I)
                     (bvule #x5 (bvadd #x3 I))
                     (not (bvule #xe (bvadd #x5 H)))))
           (a!23 (or ((_ bit2bool 0) I)
                     ((_ bit2bool 0) S1)
                     (not ((_ bit2bool 0) E1))
                     (bvule #x5 (bvadd #x3 I))
                     (not (bvule #xe (bvadd #x5 H)))))
           (a!24 (or (not (= J1 #b1)) (not (bvule #xe (bvadd #x5 H)))))
           (a!25 (or (not (bvule #xe (bvadd #x9 H))) (= M #b1)))
           (a!26 (or (not (= N2 #b0)) (not (bvule #xe (bvadd #x2 H)))))
           (a!27 (or ((_ bit2bool 0) Y1)
                     ((_ bit2bool 0) S1)
                     (= D1 A)
                     (= N1 #b1)
                     (not (bvule #xe (bvadd #x2 H)))
                     (not (= Y J))))
           (a!28 (or (not (= J1 #b1)) (not (bvule #xe (bvadd #x2 H)))))
           (a!29 (or ((_ bit2bool 0) S1)
                     (not ((_ bit2bool 0) E1))
                     (not (bvule #xe (bvadd #x1 H)))
                     (bvule #x5 (bvadd #x1 I))))
           (a!30 (or (bvule #x5 I)
                     (not (bvule #xe (bvadd #x1 H)))
                     (not (bvule #x5 (bvadd #x1 I)))))
           (a!31 (or (not (= B2 #b1)) (not (bvule #xe (bvadd #x9 H)))))
           (a!32 (or (not (= Y #x0))
                     (not (bvule #xe (bvadd #x3 H)))
                     (bvule #x5 (bvadd #x3 I))))
           (a!33 (or (not (= Y #x0))
                     (not (bvule #xe (bvadd #x1 H)))
                     (bvule #x5 (bvadd #x1 I))))
           (a!34 (or ((_ bit2bool 0) V)
                     ((_ bit2bool 1) V)
                     ((_ bit2bool 2) V)
                     (not (= J1 #b1))
                     (not (bvule #xe (bvadd #x9 H)))))
           (a!35 (or (not (= J1 #b1))
                     (bvule #x4 (bvadd #x1 V))
                     (not (bvule #xe (bvadd #x7 H)))))
           (a!36 (or ((_ bit2bool 0) I)
                     (not (bvule #xe (bvadd #x1 H)))
                     (not ((_ bit2bool 69) D2))
                     (= N1 #b1)
                     (not (bvule #x5 (bvadd #x1 I)))))
           (a!37 (or (= J Y)
                     ((_ bit2bool 0) I)
                     (not (bvule #xe (bvadd #x1 H)))
                     (not ((_ bit2bool 69) D2))
                     (not (bvule #x5 (bvadd #x1 I)))))
           (a!38 (or (not (= X #b1)) (not (bvule #xe (bvadd #xa H)))))
           (a!39 (or (not (= B2 #b1))
                     (bvule #x4 (bvadd #x1 V))
                     (not (bvule #xe (bvadd #xb H)))))
           (a!40 (or ((_ bit2bool 0) V)
                     ((_ bit2bool 1) V)
                     ((_ bit2bool 2) V)
                     (not (= B2 #b1))
                     (not (bvule #xe (bvadd #xd H))))))
     (let ((a!41 (and a!1
                      (or (= Q1 #b0) (= (bvnot S) U))
                      (or (= G3 #b1) (not (= H2 #b1)) (= N2 #b1))
                      (or (= X #b1) (= G3 #b1) (not (= S #b1)) (= R #b1))
                      a!2
                      (or (= P1 #x0) (= S #b1))
                      (or (= G3 #b1) (not (= X #b1)) (= H1 #b1))
                      (or (= B2 #b0) (not (= S #b0)))
                      (or (= L1 #x0) (not (= S #b0)))
                      (or (= J1 #b1) (not (= B2 #b1)))
                      (or (not ((_ bit2bool 1) H)) (= M #b1))
                      (or (not ((_ bit2bool 1) H)) (not (= X #b1)))
                      (or (= Q1 #b0)
                          ((_ bit2bool 0) C1)
                          ((_ bit2bool 0) Y1)
                          ((_ bit2bool 0) C2)
                          ((_ bit2bool 0) W1)
                          (not (= S #b1)))
                      (not (= H #xf))
                      (or ((_ bit2bool 0) S1)
                          (= J1 #b1)
                          (= Z1 #b1)
                          (= T2 #b1)
                          (not ((_ bit2bool 69) D2))
                          (= C2 #b1))
                      (or (= J Y) (= N2 #b1))
                      (or (not ((_ bit2bool 1) H)) (not (= N2 #b0)))
                      (or ((_ bit2bool 0) S1)
                          (not ((_ bit2bool 1) H))
                          (= J1 #b1)
                          (= T2 #b1)
                          (not ((_ bit2bool 69) D2)))
                      (or ((_ bit2bool 1) I)
                          (not (= J1 #b0))
                          ((_ bit2bool 0) I)
                          ((_ bit2bool 2) I)
                          ((_ bit2bool 0) S1)
                          (not ((_ bit2bool 1) H))
                          (not ((_ bit2bool 69) D2)))
                      a!3
                      (or ((_ bit2bool 0) S1)
                          (not ((_ bit2bool 2) H))
                          (not ((_ bit2bool 3) H))
                          (= J1 #b1)
                          (not ((_ bit2bool 69) D2))
                          (bvule #x5 (bvadd #x2 I)))
                      a!4
                      (or (= J1 #b1) (= M1 Q) (not (= C1 #b1)))
                      a!5
                      (or ((_ bit2bool 0) V)
                          ((_ bit2bool 1) V)
                          ((_ bit2bool 2) V)
                          (not (= X #b0))
                          (not (= B2 #b1)))
                      a!6
                      a!7
                      a!8
                      a!9
                      a!10
                      (or (not (bvule #x5 I)) (not (= X #b0)) (not (= J1 #b1)))
                      (or (not (= T2 W1)) (not (bvule #x5 I)))
                      (or (not ((_ bit2bool 1) I)) (= T2 #b1))
                      a!11
                      (or (not ((_ bit2bool 3) H)) (= M #b1))
                      (or (not (= J1 #b0))
                          ((_ bit2bool 0) Y1)
                          (not ((_ bit2bool 2) H))
                          (= R1 A))
                      (or (= W1 #b1)
                          ((_ bit2bool 0) Y1)
                          ((_ bit2bool 0) S1)
                          (not (= E2 #b0))
                          (not (= S #b1))
                          (= D1 A)
                          (= Z1 #b1)
                          (= C2 #b1)
                          (= N1 #b1)
                          (not (= Y J)))
                      (or (not ((_ bit2bool 2) H))
                          (not ((_ bit2bool 1) H))
                          (= G Q)
                          (not (= J1 #b1)))
                      (or (not ((_ bit2bool 2) H))
                          (not ((_ bit2bool 1) H))
                          (not (= J1 #b1))
                          (= K2 X1))
                      (or (not ((_ bit2bool 2) H))
                          (not ((_ bit2bool 1) H))
                          (= D1 A)
                          (not (= J1 #b1)))
                      a!12
                      (or (not ((_ bit2bool 3) H)) (= G Q) (not (= J1 #b1)))
                      a!13
                      (or (not ((_ bit2bool 3) H)) (= D1 A) (not (= J1 #b1)))
                      (or (not ((_ bit2bool 3) H)) (not (= J1 #b1)) (= K2 X1))
                      (or (not ((_ bit2bool 3) H))
                          (not ((_ bit2bool 1) H))
                          (not (= J1 #b1)))
                      a!14
                      (or (not ((_ bit2bool 0) I)) (= V2 X1))
                      (or (not (= Y #x0))
                          (= J #x0)
                          (not ((_ bit2bool 1) I))
                          (not ((_ bit2bool 2) H))
                          (not ((_ bit2bool 3) H)))
                      (or (not (= J1 #b0))
                          ((_ bit2bool 0) I)
                          ((_ bit2bool 0) S1)
                          (= Z1 #b1)
                          (not ((_ bit2bool 69) D2))
                          (= C2 #b1)
                          (bvule #x5 (bvadd #x3 I)))
                      (or (not (= J1 #b0))
                          (= J Y)
                          ((_ bit2bool 0) I)
                          ((_ bit2bool 0) S1)
                          (not ((_ bit2bool 69) D2))
                          (= C2 #b1)
                          (bvule #x5 (bvadd #x3 I)))
                      a!15
                      (or (= J Y)
                          (not ((_ bit2bool 1) I))
                          (not ((_ bit2bool 2) H))
                          (not ((_ bit2bool 3) H))
                          (not ((_ bit2bool 69) D2)))
                      a!16
                      (or ((_ bit2bool 1) V)
                          ((_ bit2bool 2) V)
                          (= J Y)
                          (not ((_ bit2bool 2) H))
                          (not ((_ bit2bool 1) H))
                          (= V2 X1))
                      a!17
                      a!18
                      a!19
                      a!20
                      a!21
                      a!22
                      a!23
                      (or (not ((_ bit2bool 0) I))
                          (not ((_ bit2bool 1) I))
                          (not ((_ bit2bool 2) H))
                          (not ((_ bit2bool 3) H)))
                      (or (not ((_ bit2bool 2) H))
                          (not ((_ bit2bool 3) H))
                          (not ((_ bit2bool 1) H))
                          (not (bvule #x5 I)))
                      a!24
                      (or ((_ bit2bool 0) Y1)
                          ((_ bit2bool 0) S1)
                          (not ((_ bit2bool 3) H))
                          (not ((_ bit2bool 1) H))
                          (bvule #x5 (bvadd #x3 I)))
                      (or (not ((_ bit2bool 2) H))
                          (not ((_ bit2bool 3) H))
                          (not ((_ bit2bool 1) H))
                          (= S2 #b0))
                      a!25
                      (or ((_ bit2bool 0) I)
                          ((_ bit2bool 0) S1)
                          (not ((_ bit2bool 3) H))
                          (not ((_ bit2bool 1) H))
                          (not ((_ bit2bool 0) E1))
                          (bvule #x5 (bvadd #x3 I)))
                      (or ((_ bit2bool 0) S1)
                          (not ((_ bit2bool 2) H))
                          (not ((_ bit2bool 3) H))
                          (not ((_ bit2bool 0) E1))
                          (bvule #x5 (bvadd #x2 I)))
                      a!26
                      a!27
                      a!28
                      a!29
                      a!30
                      (or (= Q2 #b0) (not (= W2 #b0)))
                      a!31
                      (or (not (= Y #x0))
                          ((_ bit2bool 0) I)
                          (not ((_ bit2bool 3) H))
                          (not ((_ bit2bool 1) H))
                          (bvule #x5 (bvadd #x3 I)))
                      (or (not ((_ bit2bool 3) H))
                          (not ((_ bit2bool 1) H))
                          (= V2 X1))
                      a!32
                      a!33
                      (or ((_ bit2bool 1) V)
                          ((_ bit2bool 2) V)
                          (not ((_ bit2bool 2) H))
                          (not ((_ bit2bool 1) H))
                          (not (= J1 #b1)))
                      a!34
                      a!35
                      (or ((_ bit2bool 2) V)
                          (not ((_ bit2bool 3) H))
                          (not (= J1 #b1)))
                      (or (not ((_ bit2bool 0) I))
                          (not ((_ bit2bool 3) H))
                          (not ((_ bit2bool 1) H))
                          (bvule #x5 (bvadd #x2 I)))
                      (or (not ((_ bit2bool 2) H))
                          (not (= B2 #b1))
                          (bvule #x4 (bvadd #x1 V)))
                      a!36
                      a!37
                      (or ((_ bit2bool 0) V)
                          ((_ bit2bool 1) V)
                          ((_ bit2bool 2) V)
                          (= J Y)
                          (not (= B2 #b1)))
                      (or ((_ bit2bool 2) V)
                          (= J Y)
                          (not ((_ bit2bool 2) H))
                          (not (= B2 #b1)))
                      a!38
                      a!39
                      a!40
                      (or ((_ bit2bool 1) V)
                          ((_ bit2bool 2) V)
                          (not ((_ bit2bool 1) H))
                          (not (= B2 #b1))))))
       (= (INV!slice!1 A
                       B
                       C
                       D
                       E
                       F
                       G
                       H
                       I
                       J
                       K
                       L
                       M
                       N
                       O
                       P
                       Q
                       R
                       S
                       T
                       U
                       V
                       W
                       X
                       Y
                       Z
                       A1
                       B1
                       C1
                       D1
                       E1
                       F1
                       G1
                       H1
                       I1
                       J1
                       K1
                       L1
                       M1
                       N1
                       O1
                       P1
                       Q1
                       R1
                       S1
                       T1
                       U1
                       V1
                       W1
                       X1
                       Y1
                       Z1
                       A2
                       B2
                       C2
                       D2
                       E2
                       F2
                       G2
                       H2
                       I2
                       J2
                       K2
                       L2
                       M2
                       N2
                       O2
                       P2
                       Q2
                       R2
                       S2
                       T2
                       U2
                       V2
                       W2
                       X2
                       Y2
                       Z2
                       A3
                       B3
                       C3
                       D3
                       E3
                       F3
                       G3)
          a!41)))
     :weight 0))
